% demand
num_movements = 39;
loading_factor = [1850, 1300, 1900, 1200, 1800, 1450, 900, 1950, 1450, 1050, 1550, 800, 800, 1900, 1700, 1900, 1800, 1450, 1550, 1400, 900, 1900, 2000, 1400, 1100, 850, 1150, 1200, 1000, 1550, 1000, 950, 1650, 800, 1400, 1250, 1350, 1000, 1600];
pickup_time = [0, 0, 0, 1, 1, 1, 1, 1, 1, 2, 2, 2, 2, 3, 3, 3, 3, 3, 4, 4, 4, 6, 7, 7, 7, 7, 9, 9, 9, 9, 10, 10, 10, 10, 10, 10, 10, 10, 11];
delivery_time = [1, 1, 1, 3, 3, 3, 3, 2, 10, 3, 3, 3, 4, 4, 6, 4, 6, 6, 6, 9, 9, 10, 8, 9, 9, 10, 10, 10, 10, 10, 12, 12, 12, 12, 12, 12, 12, 12, 12];

% transporter definition
total_capacity = 11000;
num_decks = 4;
capacity = [3000, 3000, 1000, 4000];

% ways out of decks
num_ways_out = 2;
paths_out = array3d(decks, ways_out, decks, [
% ways out of deck d1
2, 4, 0, 0, 3, 4, 0, 0, 

% ways out of deck d2
4, 0, 0, 0, 0, 0, 0, 0,	

% ways out of deck d3
4, 0, 0, 0, 0, 0, 0, 0,	

% ways out of deck d4
0, 0, 0, 0,	0, 0, 0, 0,	

]);

